
Gurobi 8.1.1 (win64) logging started 11/27/19 01:38:05

Changed value of parameter LogFile to logs/miss/rlt/miss-06-30-0.log
   Prev: gurobi.log  Default: 
Changed value of parameter LogToConsole to 0
   Prev: 1  Min: 0  Max: 1  Default: 1
Changed value of parameter TimeLimit to 3600.0
   Prev: 1e+100  Min: 0.0  Max: 1e+100  Default: 1e+100
Optimize a model with 87492 rows, 29403 columns and 206064 nonzeros
Variable types: 0 continuous, 29403 integer (242 binary)
Coefficient statistics:
  Matrix range     [1e+00, 1e+00]
  Objective range  [1e+00, 1e+00]
  Bounds range     [1e+00, 1e+00]
  RHS range        [1e+00, 1e+00]
Presolve time: 0.92s
Presolved: 87492 rows, 29403 columns, 206064 nonzeros
Variable types: 0 continuous, 29403 integer (29403 binary)
Found heuristic solution: objective 6.0000000

Root simplex log...

Iteration    Objective       Primal Inf.    Dual Inf.      Time
    3237    1.2617912e+00   4.059463e+02   0.000000e+00      5s
    4830    1.2634946e+00   0.000000e+00   0.000000e+00      6s

Root relaxation: objective 1.263495e+00, 4830 iterations, 5.30 seconds

    Nodes    |    Current Node    |     Objective Bounds      |     Work
 Expl Unexpl |  Obj  Depth IntInf | Incumbent    BestBd   Gap | It/Node Time

     0     0    1.26349    0 2051    6.00000    1.26349  78.9%     -    9s
     0     0    1.40938    0 1377    6.00000    1.40938  76.5%     -   16s
     0     0    1.49410    0 1616    6.00000    1.49410  75.1%     -   29s
     0     0    1.49933    0 1548    6.00000    1.49933  75.0%     -   36s
     0     0    1.52935    0 1294    6.00000    1.52935  74.5%     -   41s
     0     0    1.53212    0 1363    6.00000    1.53212  74.5%     -   73s
     0     0    1.55835    0 1621    6.00000    1.55835  74.0%     -   80s
     0     0    1.56085    0 1606    6.00000    1.56085  74.0%     -  101s
     0     0    1.58465    0 1537    6.00000    1.58465  73.6%     -  107s
     0     0    1.58503    0 1547    6.00000    1.58503  73.6%     -  112s
     0     0    1.59941    0 1552    6.00000    1.59941  73.3%     -  120s
     0     0    1.59968    0 1549    6.00000    1.59968  73.3%     -  130s
     0     0    1.61085    0 1585    6.00000    1.61085  73.2%     -  138s
     0     0    1.61126    0 1671    6.00000    1.61126  73.1%     -  166s
     0     0    1.62003    0 1524    6.00000    1.62003  73.0%     -  173s
     0     0    1.62017    0 1526    6.00000    1.62017  73.0%     -  178s
     0     0    1.62761    0 1657    6.00000    1.62761  72.9%     -  186s
     0     0    1.62761    0 1652    6.00000    1.62761  72.9%     -  188s
     0     0    1.63467    0 1809    6.00000    1.63467  72.8%     -  196s
     0     0    1.63510    0 1788    6.00000    1.63510  72.7%     -  247s
     0     0    1.64033    0 1707    6.00000    1.64033  72.7%     -  255s
     0     0    1.64037    0 1713    6.00000    1.64037  72.7%     -  258s
     0     0    1.64551    0 1751    6.00000    1.64551  72.6%     -  267s
     0     0    1.64559    0 1663    6.00000    1.64559  72.6%     -  290s
     0     0    1.64921    0 1654    6.00000    1.64921  72.5%     -  300s
     0     0    1.64928    0 1704    6.00000    1.64928  72.5%     -  313s
     0     0    1.65326    0 1622    6.00000    1.65326  72.4%     -  324s
     0     0    1.65341    0 1633    6.00000    1.65341  72.4%     -  340s
     0     0    1.65658    0 1659    6.00000    1.65658  72.4%     -  351s
     0     0    1.65669    0 1589    6.00000    1.65669  72.4%     -  367s
     0     0    1.65925    0 1667    6.00000    1.65925  72.3%     -  379s
     0     0    1.65929    0 1687    6.00000    1.65929  72.3%     -  392s
     0     0    1.66175    0 1659    6.00000    1.66175  72.3%     -  405s
     0     0    1.66176    0 1656    6.00000    1.66176  72.3%     -  461s
     0     0    1.66348    0 1673    6.00000    1.66348  72.3%     -  472s
     0     0    1.66353    0 1706    6.00000    1.66353  72.3%     -  476s
     0     0    1.66485    0 1587    6.00000    1.66485  72.3%     -  488s
     0     0    1.66488    0 1565    6.00000    1.66488  72.3%     -  501s
     0     0    1.66603    0 1573    6.00000    1.66603  72.2%     -  512s
     0     2    1.66603    0 1573    6.00000    1.66603  72.2%     - 1286s
     1     4    1.66735    1 1569    6.00000    1.66603  72.2%  5200 1317s
     3     6    1.66964    2 1757    6.00000    1.66736  72.2%  8039 1330s
     5     8    1.67049    3 1673    6.00000    1.66736  72.2%  5616 1338s
     7     8    1.67179    4 1614    6.00000    1.66736  72.2%  4504 1345s
     9    10    1.67317    5 1556    6.00000    1.66736  72.2%  3948 1353s
    11    12    1.67467    6 1506    6.00000    1.66736  72.2%  3563 1361s
    13    14    1.67828    7 1493    6.00000    1.66736  72.2%  3427 1371s
    15    16    1.68204    8 1458    6.00000    1.66736  72.2%  3362 1382s
    17    18    1.68664    9 1392    6.00000    1.66736  72.2%  3235 1391s
    20    21    1.68925   10 1498    6.00000    1.66736  72.2%  2968 1398s
    24    25    1.69450   11 1564    6.00000    1.66736  72.2%  2692 1407s
    27    28    1.69885   12 1516    6.00000    1.66736  72.2%  2537 1487s
    29    30    1.70392   13 1523    6.00000    1.66736  72.2%  2448 1493s
    33    34    1.70926   14 1491    6.00000    1.66736  72.2%  2266 1498s
    36    37    1.71774   15 1457    6.00000    1.66736  72.2%  2171 1504s
    40    41    1.72539   16 1430    6.00000    1.66736  72.2%  2036 1512s
    45    46    1.74499   18 1332    6.00000    1.66736  72.2%  1941 1519s
    51    52    1.77143   20 1164    6.00000    1.66736  72.2%  1825 1526s
    58    59    1.81402   24 1144    6.00000    1.66736  72.2%  1702 1706s
    60    61    1.82560   25 1157    6.00000    1.66736  72.2%  1676 1714s
    68    69    1.88525   30 1027    6.00000    1.66736  72.2%  1596 1721s
    77    78    2.00000   37  754    6.00000    1.66736  72.2%  1492 1728s
    85    87    2.97917   41  826    6.00000    1.66736  72.2%  1452 1904s
    89    89    2.17424   43  702    6.00000    1.66736  72.2%  1414 1911s
   104   105    2.75238   52  544    6.00000    1.66736  72.2%  1275 1917s
   122   120    3.93716   63  446    6.00000    1.66964  72.2%  1146 1952s
   143   140    2.48007    3 1787    6.00000    1.66964  72.2%  1148 1960s
   160   155    2.48870    5 1719    6.00000    1.66964  72.2%  1063 1966s
   180   175    2.49680    8 1698    6.00000    1.66964  72.2%   974 1971s
   202   194    2.50543   11 1652    6.00000    1.66964  72.2%   895 1999s
   210   201    2.51550   14 1645    6.00000    1.66964  72.2%   938 2006s
   215   205    2.52478   17 1575    6.00000    1.66964  72.2%   936 2013s
   221   210    2.53684   20 1528    6.00000    1.66964  72.2%   933 2020s
   227   216    2.55255   24 1512    6.00000    1.66964  72.2%   931 2028s
   234   223    2.57272   28 1504    6.00000    1.66964  72.2%   928 2035s
   242   231    2.59113   32 1492    6.00000    1.66964  72.2%   920 2043s
   250   239    2.61464   36 1416    6.00000    1.66964  72.2%   914 2052s
   259   248    2.64497   41 1402    6.00000    1.66964  72.2%   911 2060s
   268   257    2.67918   46 1304    6.00000    1.66964  72.2%   902 2069s
   280   269    2.79137   54 1139    6.00000    1.66964  72.2%   894 2081s
   305   294    3.27299   74  800    6.00000    1.66964  72.2%   867 2093s
   341   330    4.32290  105  486    6.00000    1.66964  72.2%   814 2283s
   343   329    4.38484  106  504    6.00000    1.67181  72.1%   812 2316s
   374   361    2.46376    4 1788    6.00000    1.67181  72.1%   811 2330s
   416   394    2.47372    8 1731    6.00000    1.67181  72.1%   760 2363s
   451   429    2.48689   12 1691    6.00000    1.67181  72.1%   746 2373s
   462   437    2.50718   18 1636    6.00000    1.67181  72.1%   746 2386s
   472   447    2.53064   23 1582    6.00000    1.67181  72.1%   749 2399s
   485   460    2.56746   29 1550    6.00000    1.67181  72.1%   750 2411s
   498   473    2.60850   35 1479    6.00000    1.67181  72.1%   750 2425s
   512   487    2.69541   41 1403    6.00000    1.67181  72.1%   752 2442s
   546   523    2.95762   54 1222    6.00000    1.67181  72.1%   740 2463s
   632   597    3.67591   85  692    6.00000    1.67469  72.1%   679 2507s
   682   646    2.49452    6 1728    6.00000    1.67828  72.0%   679 2522s
   692   649    2.51298   11 1674    6.00000    1.67828  72.0%   683 2537s
   707   663    2.53863   20 1589    6.00000    1.67828  72.0%   685 2665s
   709   665    2.54200   21 1588    6.00000    1.67828  72.0%   685 2681s
   726   682    2.66640   42 1573    6.00000    1.67828  72.0%   686 2751s
   728   683    2.54156   24 2051    6.00000    1.67828  72.0%   684 2765s
   729   684    2.67654   42 1543    6.00000    1.67828  72.0%   683 3495s
   730   685    2.53595   20 1539    6.00000    1.67828  72.0%   682 3517s
   731   685    4.01955  101 1625    6.00000    1.67828  72.0%   681 3561s
   732   686    2.48013    4 1504    6.00000    1.67828  72.0%   680 3595s

Cutting planes:
  MIR: 4
  Zero half: 152

Explored 732 nodes (638539 simplex iterations) in 3600.05 seconds
Thread count was 4 (of 4 available processors)

Solution count 1: 6 

Time limit reached
Best objective 6.000000000000e+00, best bound 2.000000000000e+00, gap 66.6667%
